(set-option :produce-models true); benchmark generated from python API
(set-info :status unknown)
(declare-fun l_0_0_9 () Real)
(declare-fun l_0_0_8 () Real)
(declare-fun l_0_0_3 () Real)
(declare-fun l_0_0_2 () Real)
(declare-fun _a_0_ () Real)
(declare-fun l_0_0_5 () Real)
(declare-fun l_0_0_4 () Real)
(declare-fun l_0_0_11 () Real)
(declare-fun l_0_0_10 () Real)
(declare-fun _a_1_ () Real)
(declare-fun l_0_0_7 () Real)
(declare-fun l_0_0_1 () Real)
(declare-fun _a_2_ () Real)
(declare-fun _a_3_ () Real)
(declare-fun l_0_0_6 () Real)
(declare-fun l_0_0_12 () Real)
(declare-fun _a_4_ () Real)
(declare-fun _a_5_ () Real)
(declare-fun l_0_1_9 () Real)
(declare-fun l_0_1_8 () Real)
(declare-fun l_0_1_15 () Real)
(declare-fun l_0_1_14 () Real)
(declare-fun l_0_1_3 () Real)
(declare-fun l_0_1_2 () Real)
(declare-fun l_0_1_18 () Real)
(declare-fun l_0_1_17 () Real)
(declare-fun l_0_1_16 () Real)
(declare-fun l_0_1_12 () Real)
(declare-fun l_0_1_11 () Real)
(declare-fun l_0_1_10 () Real)
(declare-fun l_0_1_5 () Real)
(declare-fun l_0_1_4 () Real)
(declare-fun l_0_1_6 () Real)
(declare-fun l_0_1_7 () Real)
(declare-fun l_0_1_13 () Real)
(declare-fun l_0_1_1 () Real)
(declare-fun l_0_2_9 () Real)
(declare-fun l_0_2_8 () Real)
(declare-fun l_0_2_15 () Real)
(declare-fun l_0_2_14 () Real)
(declare-fun l_0_2_3 () Real)
(declare-fun l_0_2_2 () Real)
(declare-fun l_0_2_17 () Real)
(declare-fun l_0_2_16 () Real)
(declare-fun l_0_2_11 () Real)
(declare-fun l_0_2_10 () Real)
(declare-fun l_0_2_5 () Real)
(declare-fun l_0_2_4 () Real)
(declare-fun l_0_2_7 () Real)
(declare-fun l_0_2_13 () Real)
(declare-fun l_0_2_1 () Real)
(declare-fun l_0_2_18 () Real)
(declare-fun l_0_2_12 () Real)
(declare-fun l_0_2_6 () Real)
(assert
 (let ((?x68 (* l_0_0_9 l_0_0_9)))
 (let ((?x66 (* l_0_0_8 l_0_0_8)))
 (let ((?x65 (- (- _a_0_ (* (* 1.0 l_0_0_2) l_0_0_2)) (* (* 1.0 l_0_0_3) l_0_0_3))))
 (= (- (- ?x65 ?x66) ?x68) 0.0)))))
(assert
 (let ((?x116 (* (* 2.0 l_0_0_3) l_0_0_5)))
 (let ((?x113 (* (* 2.0 l_0_0_2) l_0_0_4)))
 (let ((?x111 (- (- _a_1_ (* (* 2.0 l_0_0_10) l_0_0_8)) (* (* 2.0 l_0_0_11) l_0_0_9))))
 (= (- (- ?x111 ?x113) ?x116) 0.0)))))
(assert
 (let ((?x149 (- (- _a_2_ (* (* 2.0 l_0_0_1) l_0_0_4)) (* (* 2.0 l_0_0_10) l_0_0_7))))
 (= ?x149 0.0)))
(assert
 (let ((?x168 (- (- _a_3_ (* (* 2.0 l_0_0_1) l_0_0_2)) (* (* 2.0 l_0_0_7) l_0_0_8))))
 (= ?x168 0.0)))
(assert
 (let ((?x94 (* l_0_0_3 l_0_0_3)))
 (let ((?x90 (* l_0_0_2 l_0_0_2)))
 (let ((?x187 (* l_0_0_12 l_0_0_12)))
 (let ((?x188 (- (- (- _a_4_ (* l_0_0_10 l_0_0_10)) (* l_0_0_11 l_0_0_11)) ?x187)))
 (let ((?x196 (- (- (+ (+ ?x188 ?x90) ?x94) (* (* 1.0 l_0_0_4) l_0_0_4)) (* (* 1.0 l_0_0_5) l_0_0_5))))
 (= (- ?x196 (* (* 1.0 l_0_0_6) l_0_0_6)) 0.0)))))))
(assert
 (let ((?x228 (* l_0_0_7 l_0_0_7)))
 (let ((?x94 (* l_0_0_3 l_0_0_3)))
 (let ((?x90 (* l_0_0_2 l_0_0_2)))
 (let ((?x229 (- (- (- (- _a_5_ (* (* 1.0 l_0_0_1) l_0_0_1)) ?x90) ?x94) ?x228)))
 (= ?x229 0.0))))))
(assert
 (let ((?x218 (* l_0_0_6 l_0_0_6)))
 (let ((?x214 (* l_0_0_5 l_0_0_5)))
 (= (- (- (- (* l_0_0_1 l_0_0_1) (* l_0_0_4 l_0_0_4)) ?x214) ?x218) 0.0))))
(assert
 (let ((?x145 (* 2.0 l_0_0_1)))
 (let ((?x164 (* ?x145 l_0_0_2)))
 (= ?x164 0.0))))
(assert
 (let ((?x145 (* 2.0 l_0_0_1)))
 (let ((?x146 (* ?x145 l_0_0_4)))
 (= ?x146 0.0))))
(assert
 (let ((?x116 (* (* 2.0 l_0_0_3) l_0_0_5)))
 (let ((?x113 (* (* 2.0 l_0_0_2) l_0_0_4)))
 (= (+ ?x113 ?x116) 0.0))))
(assert
 (let ((?x218 (* l_0_0_6 l_0_0_6)))
 (= (+ (+ (* l_0_0_4 l_0_0_4) (* l_0_0_5 l_0_0_5)) ?x218) 0.0)))
(assert
 (= (* (- l_0_0_1) l_0_0_1) 0.0))
(assert
 (= (* (* (- 2.0) l_0_0_1) l_0_0_2) 0.0))
(assert
 (= (* (* (- 2.0) l_0_0_1) l_0_0_4) 0.0))
(assert
 (let ((?x116 (* (* 2.0 l_0_0_3) l_0_0_5)))
 (= (- (* (* (- 2.0) l_0_0_2) l_0_0_4) ?x116) 0.0)))
(assert
 (>= l_0_0_1 0.0))
(assert
 (>= l_0_0_3 0.0))
(assert
 (>= l_0_0_6 0.0))
(assert
 (>= l_0_0_7 0.0))
(assert
 (>= l_0_0_9 0.0))
(assert
 (>= l_0_0_12 0.0))
(assert
 (let ((?x296 (* l_0_1_15 l_0_1_15)))
 (let ((?x294 (* l_0_1_14 l_0_1_14)))
 (let ((?x295 (- (* (- _a_0_) (+ (* l_0_1_2 l_0_1_2) (* l_0_1_3 l_0_1_3))) ?x294)))
 (let ((?x303 (+ (+ (- ?x295 ?x296) (* 1.0 (* l_0_1_8 l_0_1_8))) (* 1.0 (* l_0_1_9 l_0_1_9)))))
 (= (+ ?x303 (/ 15.0 4.0)) 0.0))))))
(assert
 (let ((?x301 (* l_0_1_9 l_0_1_9)))
 (let ((?x298 (* l_0_1_8 l_0_1_8)))
 (let ((?x351 (* l_0_1_18 l_0_1_18)))
 (let ((?x349 (* l_0_1_17 l_0_1_17)))
 (let ((?x347 (* l_0_1_16 l_0_1_16)))
 (let ((?x333 (+ (* (* 2.0 l_0_1_2) l_0_1_4) (* (* 2.0 l_0_1_3) l_0_1_5))))
 (let ((?x326 (* l_0_1_6 l_0_1_6)))
 (let ((?x327 (+ (+ (* l_0_1_4 l_0_1_4) (* l_0_1_5 l_0_1_5)) ?x326)))
 (let ((?x289 (- _a_0_)))
 (let ((?x337 (- (- (* ?x289 ?x327) (* _a_1_ ?x333)) (* _a_4_ (+ (* l_0_1_2 l_0_1_2) (* l_0_1_3 l_0_1_3))))))
 (let ((?x343 (+ (+ ?x337 (* 1.0 (* l_0_1_10 l_0_1_10))) (* 1.0 (* l_0_1_11 l_0_1_11)))))
 (let ((?x352 (- (- (- (+ ?x343 (* 1.0 (* l_0_1_12 l_0_1_12))) ?x347) ?x349) ?x351)))
 (= (+ (- (- ?x352 ?x298) ?x301) 1.0) 0.0))))))))))))))
(assert
 (let ((?x301 (* l_0_1_9 l_0_1_9)))
 (let ((?x298 (* l_0_1_8 l_0_1_8)))
 (let ((?x424 (* l_0_1_13 l_0_1_13)))
 (let ((?x421 (- (* (* (- _a_0_) l_0_1_1) l_0_1_1) (* (* (* 2.0 _a_3_) l_0_1_1) l_0_1_2))))
 (let ((?x423 (- ?x421 (* _a_5_ (+ (* l_0_1_2 l_0_1_2) (* l_0_1_3 l_0_1_3))))))
 (let ((?x430 (- (- (+ (- ?x423 ?x424) (* 1.0 (* l_0_1_7 l_0_1_7))) ?x298) ?x301)))
 (= (+ ?x430 1.0) 0.0))))))))
(assert
 (let ((?x473 (* (* 2.0 l_0_1_7) l_0_1_8)))
 (let ((?x468 (- (* (* (* (- 2.0) _a_0_) l_0_1_1) l_0_1_2) (* _a_3_ (+ (* l_0_1_2 l_0_1_2) (* l_0_1_3 l_0_1_3))))))
 (= (- (+ (- ?x468 (* (* 2.0 l_0_1_13) l_0_1_14)) ?x473) 4.0) 0.0))))
(assert
 (let ((?x518 (* 2.0 l_0_1_10)))
 (let ((?x519 (* ?x518 l_0_1_7)))
 (let ((?x333 (+ (* (* 2.0 l_0_1_2) l_0_1_4) (* (* 2.0 l_0_1_3) l_0_1_5))))
 (let ((?x513 (- (* (* (* (- 2.0) _a_0_) l_0_1_1) l_0_1_4) (* (* (* 2.0 _a_1_) l_0_1_1) l_0_1_2))))
 (let ((?x515 (- ?x513 (* _a_2_ (+ (* l_0_1_2 l_0_1_2) (* l_0_1_3 l_0_1_3))))))
 (let ((?x522 (- (+ (- ?x515 (* _a_3_ ?x333)) ?x519) (* (* 2.0 l_0_1_13) l_0_1_16))))
 (= ?x522 0.0))))))))
(assert
 (let ((?x583 (* (* 2.0 l_0_1_11) l_0_1_9)))
 (let ((?x518 (* 2.0 l_0_1_10)))
 (let ((?x580 (* ?x518 l_0_1_8)))
 (let ((?x333 (+ (* (* 2.0 l_0_1_2) l_0_1_4) (* (* 2.0 l_0_1_3) l_0_1_5))))
 (let ((?x289 (- _a_0_)))
 (let ((?x579 (- (* ?x289 ?x333) (* _a_1_ (+ (* l_0_1_2 l_0_1_2) (* l_0_1_3 l_0_1_3))))))
 (let ((?x590 (- (- (+ (+ ?x579 ?x580) ?x583) (* (* 2.0 l_0_1_14) l_0_1_16)) (* (* 2.0 l_0_1_15) l_0_1_17))))
 (= ?x590 0.0)))))))))
(assert
 (let ((?x583 (* (* 2.0 l_0_1_11) l_0_1_9)))
 (let ((?x518 (* 2.0 l_0_1_10)))
 (let ((?x580 (* ?x518 l_0_1_8)))
 (let ((?x333 (+ (* (* 2.0 l_0_1_2) l_0_1_4) (* (* 2.0 l_0_1_3) l_0_1_5))))
 (let ((?x636 (- (* (* (- _a_1_) l_0_1_1) l_0_1_1) (* (* (* 2.0 _a_2_) l_0_1_1) l_0_1_2))))
 (let ((?x640 (- (- ?x636 (* (* (* 2.0 _a_3_) l_0_1_1) l_0_1_4)) (* _a_5_ ?x333))))
 (= (- (- ?x640 ?x580) ?x583) 0.0))))))))
(assert
 (let ((?x473 (* (* 2.0 l_0_1_7) l_0_1_8)))
 (let ((?x326 (* l_0_1_6 l_0_1_6)))
 (let ((?x327 (+ (+ (* l_0_1_4 l_0_1_4) (* l_0_1_5 l_0_1_5)) ?x326)))
 (let ((?x333 (+ (* (* 2.0 l_0_1_2) l_0_1_4) (* (* 2.0 l_0_1_3) l_0_1_5))))
 (let ((?x692 (- (- (* (* (* (- 2.0) _a_1_) l_0_1_1) l_0_1_4) (* _a_2_ ?x333)) (* _a_3_ ?x327))))
 (= (- (- ?x692 (* (* (* 2.0 _a_4_) l_0_1_1) l_0_1_2)) ?x473) 0.0)))))))
(assert
 (let ((?x583 (* (* 2.0 l_0_1_11) l_0_1_9)))
 (let ((?x518 (* 2.0 l_0_1_10)))
 (let ((?x580 (* ?x518 l_0_1_8)))
 (let ((?x333 (+ (* (* 2.0 l_0_1_2) l_0_1_4) (* (* 2.0 l_0_1_3) l_0_1_5))))
 (let ((?x326 (* l_0_1_6 l_0_1_6)))
 (let ((?x327 (+ (+ (* l_0_1_4 l_0_1_4) (* l_0_1_5 l_0_1_5)) ?x326)))
 (let ((?x630 (- _a_1_)))
 (= (- (- (- (* ?x630 ?x327) (* _a_4_ ?x333)) ?x580) ?x583) 0.0)))))))))
(assert
 (let ((?x518 (* 2.0 l_0_1_10)))
 (let ((?x519 (* ?x518 l_0_1_7)))
 (let ((?x788 (- (* (* (- _a_2_) l_0_1_1) l_0_1_1) (* (* (* 2.0 _a_5_) l_0_1_1) l_0_1_4))))
 (= (- ?x788 ?x519) 0.0)))))
(assert
 (let ((?x426 (* l_0_1_7 l_0_1_7)))
 (let ((?x344 (* l_0_1_12 l_0_1_12)))
 (let ((?x341 (* l_0_1_11 l_0_1_11)))
 (let ((?x338 (* l_0_1_10 l_0_1_10)))
 (let ((?x326 (* l_0_1_6 l_0_1_6)))
 (let ((?x327 (+ (+ (* l_0_1_4 l_0_1_4) (* l_0_1_5 l_0_1_5)) ?x326)))
 (let ((?x810 (- (* (* (* (- 2.0) _a_2_) l_0_1_1) l_0_1_4) (* (* _a_4_ l_0_1_1) l_0_1_1))))
 (= (- (- (- (- (- ?x810 (* _a_5_ ?x327)) ?x338) ?x341) ?x344) ?x426) 0.0)))))))))
(assert
 (let ((?x518 (* 2.0 l_0_1_10)))
 (let ((?x519 (* ?x518 l_0_1_7)))
 (let ((?x326 (* l_0_1_6 l_0_1_6)))
 (let ((?x327 (+ (+ (* l_0_1_4 l_0_1_4) (* l_0_1_5 l_0_1_5)) ?x326)))
 (let ((?x782 (- _a_2_)))
 (let ((?x853 (- (- (* ?x782 ?x327) (* (* (* 2.0 _a_4_) l_0_1_1) l_0_1_4)) ?x519)))
 (= ?x853 0.0))))))))
(assert
 (let ((?x473 (* (* 2.0 l_0_1_7) l_0_1_8)))
 (let ((?x877 (- (* (* (- _a_3_) l_0_1_1) l_0_1_1) (* (* (* 2.0 _a_5_) l_0_1_1) l_0_1_2))))
 (= (- ?x877 ?x473) 0.0))))
(assert
 (let ((?x344 (* l_0_1_12 l_0_1_12)))
 (let ((?x341 (* l_0_1_11 l_0_1_11)))
 (let ((?x338 (* l_0_1_10 l_0_1_10)))
 (let ((?x326 (* l_0_1_6 l_0_1_6)))
 (let ((?x327 (+ (+ (* l_0_1_4 l_0_1_4) (* l_0_1_5 l_0_1_5)) ?x326)))
 (let ((?x895 (- _a_4_)))
 (= (- (- (- (* ?x895 ?x327) ?x338) ?x341) ?x344) 0.0))))))))
(assert
 (= (- (* (* (- _a_5_) l_0_1_1) l_0_1_1) (* l_0_1_7 l_0_1_7)) 0.0))
(assert
 (>= l_0_1_1 0.0))
(assert
 (>= l_0_1_3 0.0))
(assert
 (>= l_0_1_6 0.0))
(assert
 (>= l_0_1_7 0.0))
(assert
 (>= l_0_1_9 0.0))
(assert
 (>= l_0_1_12 0.0))
(assert
 (>= l_0_1_13 0.0))
(assert
 (>= l_0_1_15 0.0))
(assert
 (>= l_0_1_18 0.0))
(assert
 (let ((?x945 (* l_0_2_15 l_0_2_15)))
 (let ((?x943 (* l_0_2_14 l_0_2_14)))
 (let ((?x942 (+ (* (- _a_0_) (+ (* l_0_2_2 l_0_2_2) (* l_0_2_3 l_0_2_3))) _a_0_)))
 (let ((?x952 (- (- (- (- ?x942 ?x943) ?x945) (* (* 1.0 l_0_2_8) l_0_2_8)) (* (* 1.0 l_0_2_9) l_0_2_9))))
 (= ?x952 0.0))))))
(assert
 (let ((?x993 (* (* 2.0 l_0_2_11) l_0_2_9)))
 (let ((?x989 (* 2.0 l_0_2_10)))
 (let ((?x990 (* ?x989 l_0_2_8)))
 (let ((?x987 (* (/ 9.0 1000.0) _a_3_)))
 (let ((?x984 (* (/ 9.0 10.0) _a_1_)))
 (let ((?x979 (+ (* (* 2.0 l_0_2_2) l_0_2_4) (* (* 2.0 l_0_2_3) l_0_2_5))))
 (let ((?x289 (- _a_0_)))
 (let ((?x982 (- (* ?x289 ?x979) (* _a_1_ (+ (* l_0_2_2 l_0_2_2) (* l_0_2_3 l_0_2_3))))))
 (let ((?x997 (- (- (- (+ (+ ?x982 ?x984) ?x987) ?x990) ?x993) (* (* 2.0 l_0_2_14) l_0_2_16))))
 (= (- ?x997 (* (* 2.0 l_0_2_15) l_0_2_17)) 0.0)))))))))))
(assert
 (let ((?x1061 (* (* 2.0 l_0_2_7) l_0_2_8)))
 (let ((?x1055 (* (/ 9.0 10.0) _a_3_)))
 (let ((?x1054 (- (- (* (* (* (- 2.0) _a_0_) l_0_2_1) l_0_2_2) (* (/ 9.0 1000.0) _a_1_)) (* _a_3_ (+ (* l_0_2_2 l_0_2_2) (* l_0_2_3 l_0_2_3))))))
 (= (- (- (+ ?x1054 ?x1055) (* (* 2.0 l_0_2_13) l_0_2_14)) ?x1061) 0.0)))))
(assert
 (let ((?x989 (* 2.0 l_0_2_10)))
 (let ((?x1117 (* ?x989 l_0_2_7)))
 (let ((?x1115 (* (/ 81.0 5000.0) _a_5_)))
 (let ((?x1113 (* (/ 81.0 5000.0) _a_4_)))
 (let ((?x979 (+ (* (* 2.0 l_0_2_2) l_0_2_4) (* (* 2.0 l_0_2_3) l_0_2_5))))
 (let ((?x1108 (* (/ 809919.0 1000000.0) _a_2_)))
 (let ((?x1104 (- (* (* (* (- 2.0) _a_0_) l_0_2_1) l_0_2_4) (* (* (* 2.0 _a_1_) l_0_2_1) l_0_2_2))))
 (let ((?x1106 (- ?x1104 (* _a_2_ (+ (* l_0_2_2 l_0_2_2) (* l_0_2_3 l_0_2_3))))))
 (let ((?x1120 (- (- (+ (- (- (+ ?x1106 ?x1108) (* _a_3_ ?x979)) ?x1113) ?x1115) ?x1117) (* (* 2.0 l_0_2_13) l_0_2_16))))
 (= ?x1120 0.0)))))))))))
(assert
 (let ((?x970 (* l_0_2_9 l_0_2_9)))
 (let ((?x966 (* l_0_2_8 l_0_2_8)))
 (let ((?x1214 (* l_0_2_18 l_0_2_18)))
 (let ((?x1212 (* l_0_2_17 l_0_2_17)))
 (let ((?x1210 (* l_0_2_16 l_0_2_16)))
 (let ((?x1199 (* (/ 81.0 1000000.0) _a_5_)))
 (let ((?x1196 (* (/ 81.0 100.0) _a_4_)))
 (let ((?x1191 (* (/ 81.0 10000.0) _a_2_)))
 (let ((?x979 (+ (* (* 2.0 l_0_2_2) l_0_2_4) (* (* 2.0 l_0_2_3) l_0_2_5))))
 (let ((?x1185 (* l_0_2_6 l_0_2_6)))
 (let ((?x1186 (+ (+ (* l_0_2_4 l_0_2_4) (* l_0_2_5 l_0_2_5)) ?x1185)))
 (let ((?x289 (- _a_0_)))
 (let ((?x1194 (- (+ (- (* ?x289 ?x1186) (* _a_1_ ?x979)) ?x1191) (* _a_4_ (+ (* l_0_2_2 l_0_2_2) (* l_0_2_3 l_0_2_3))))))
 (let ((?x1206 (- (- (+ (+ ?x1194 ?x1196) ?x1199) (* (* 1.0 l_0_2_10) l_0_2_10)) (* (* 1.0 l_0_2_11) l_0_2_11))))
 (let ((?x1215 (- (- (- (- ?x1206 (* (* 1.0 l_0_2_12) l_0_2_12)) ?x1210) ?x1212) ?x1214)))
 (= (+ (+ ?x1215 ?x966) ?x970) 0.0)))))))))))))))))
(assert
 (let ((?x970 (* l_0_2_9 l_0_2_9)))
 (let ((?x966 (* l_0_2_8 l_0_2_8)))
 (let ((?x1292 (* l_0_2_13 l_0_2_13)))
 (let ((?x1290 (* (/ 81.0 100.0) _a_5_)))
 (let ((?x1286 (* (/ 81.0 1000000.0) _a_4_)))
 (let ((?x1285 (- (- (* (* (- _a_0_) l_0_2_1) l_0_2_1) (* (/ 81.0 10000.0) _a_2_)) (* (* (* 2.0 _a_3_) l_0_2_1) l_0_2_2))))
 (let ((?x1289 (- (+ ?x1285 ?x1286) (* _a_5_ (+ (* l_0_2_2 l_0_2_2) (* l_0_2_3 l_0_2_3))))))
 (let ((?x1297 (+ (- (- (+ ?x1289 ?x1290) ?x1292) (* (* 1.0 l_0_2_7) l_0_2_7)) ?x966)))
 (= (+ ?x1297 ?x970) 0.0))))))))))
(assert
 (let ((?x993 (* (* 2.0 l_0_2_11) l_0_2_9)))
 (let ((?x989 (* 2.0 l_0_2_10)))
 (let ((?x990 (* ?x989 l_0_2_8)))
 (let ((?x979 (+ (* (* 2.0 l_0_2_2) l_0_2_4) (* (* 2.0 l_0_2_3) l_0_2_5))))
 (let ((?x1344 (- (* (* (- _a_1_) l_0_2_1) l_0_2_1) (* (* (* 2.0 _a_2_) l_0_2_1) l_0_2_2))))
 (let ((?x1348 (- (- ?x1344 (* (* (* 2.0 _a_3_) l_0_2_1) l_0_2_4)) (* _a_5_ ?x979))))
 (= (+ (+ ?x1348 ?x990) ?x993) 0.0))))))))
(assert
 (let ((?x1061 (* (* 2.0 l_0_2_7) l_0_2_8)))
 (let ((?x1185 (* l_0_2_6 l_0_2_6)))
 (let ((?x1186 (+ (+ (* l_0_2_4 l_0_2_4) (* l_0_2_5 l_0_2_5)) ?x1185)))
 (let ((?x979 (+ (* (* 2.0 l_0_2_2) l_0_2_4) (* (* 2.0 l_0_2_3) l_0_2_5))))
 (let ((?x1392 (- (- (* (* (* (- 2.0) _a_1_) l_0_2_1) l_0_2_4) (* _a_2_ ?x979)) (* _a_3_ ?x1186))))
 (= (+ (- ?x1392 (* (* (* 2.0 _a_4_) l_0_2_1) l_0_2_2)) ?x1061) 0.0)))))))
(assert
 (let ((?x993 (* (* 2.0 l_0_2_11) l_0_2_9)))
 (let ((?x989 (* 2.0 l_0_2_10)))
 (let ((?x990 (* ?x989 l_0_2_8)))
 (let ((?x979 (+ (* (* 2.0 l_0_2_2) l_0_2_4) (* (* 2.0 l_0_2_3) l_0_2_5))))
 (let ((?x1185 (* l_0_2_6 l_0_2_6)))
 (let ((?x1186 (+ (+ (* l_0_2_4 l_0_2_4) (* l_0_2_5 l_0_2_5)) ?x1185)))
 (let ((?x630 (- _a_1_)))
 (= (+ (+ (- (* ?x630 ?x1186) (* _a_4_ ?x979)) ?x990) ?x993) 0.0)))))))))
(assert
 (let ((?x989 (* 2.0 l_0_2_10)))
 (let ((?x1117 (* ?x989 l_0_2_7)))
 (let ((?x1477 (- (* (* (- _a_2_) l_0_2_1) l_0_2_1) (* (* (* 2.0 _a_5_) l_0_2_1) l_0_2_4))))
 (= (+ ?x1477 ?x1117) 0.0)))))
(assert
 (let ((?x1330 (* l_0_2_7 l_0_2_7)))
 (let ((?x1265 (* l_0_2_12 l_0_2_12)))
 (let ((?x1261 (* l_0_2_11 l_0_2_11)))
 (let ((?x1257 (* l_0_2_10 l_0_2_10)))
 (let ((?x1185 (* l_0_2_6 l_0_2_6)))
 (let ((?x1186 (+ (+ (* l_0_2_4 l_0_2_4) (* l_0_2_5 l_0_2_5)) ?x1185)))
 (let ((?x1494 (- (* (* (* (- 2.0) _a_2_) l_0_2_1) l_0_2_4) (* (* _a_4_ l_0_2_1) l_0_2_1))))
 (= (+ (+ (+ (+ (- ?x1494 (* _a_5_ ?x1186)) ?x1257) ?x1261) ?x1265) ?x1330) 0.0)))))))))
(assert
 (let ((?x989 (* 2.0 l_0_2_10)))
 (let ((?x1117 (* ?x989 l_0_2_7)))
 (let ((?x1185 (* l_0_2_6 l_0_2_6)))
 (let ((?x1186 (+ (+ (* l_0_2_4 l_0_2_4) (* l_0_2_5 l_0_2_5)) ?x1185)))
 (let ((?x782 (- _a_2_)))
 (let ((?x1528 (+ (- (* ?x782 ?x1186) (* (* (* 2.0 _a_4_) l_0_2_1) l_0_2_4)) ?x1117)))
 (= ?x1528 0.0))))))))
(assert
 (let ((?x1061 (* (* 2.0 l_0_2_7) l_0_2_8)))
 (let ((?x1549 (- (* (* (- _a_3_) l_0_2_1) l_0_2_1) (* (* (* 2.0 _a_5_) l_0_2_1) l_0_2_2))))
 (= (+ ?x1549 ?x1061) 0.0))))
(assert
 (let ((?x1265 (* l_0_2_12 l_0_2_12)))
 (let ((?x1261 (* l_0_2_11 l_0_2_11)))
 (let ((?x1257 (* l_0_2_10 l_0_2_10)))
 (let ((?x1185 (* l_0_2_6 l_0_2_6)))
 (let ((?x1186 (+ (+ (* l_0_2_4 l_0_2_4) (* l_0_2_5 l_0_2_5)) ?x1185)))
 (let ((?x895 (- _a_4_)))
 (= (+ (+ (+ (* ?x895 ?x1186) ?x1257) ?x1261) ?x1265) 0.0))))))))
(assert
 (= (+ (* (* (- _a_5_) l_0_2_1) l_0_2_1) (* l_0_2_7 l_0_2_7)) 0.0))
(assert
 (>= l_0_2_1 0.0))
(assert
 (>= l_0_2_3 0.0))
(assert
 (>= l_0_2_6 0.0))
(assert
 (>= l_0_2_7 0.0))
(assert
 (>= l_0_2_9 0.0))
(assert
 (>= l_0_2_12 0.0))
(assert
 (>= l_0_2_13 0.0))
(assert
 (>= l_0_2_15 0.0))
(assert
 (>= l_0_2_18 0.0))
(check-sat)
(get-model)